RT is False
Default write of storage_offers_DA.csv just to have a file (but constraint should be inactive)
Reading model...
...model read.
creating competitive generators file...
...competitive generators recorded.
Loading data...
.. day-ahead data read.
Compiling instance...
...instance created.
Creating Offer Mitigation (model will solve as dispatch if TRUE)...
NOTE: storage offers will not be mitigated
...storage offer mitigation file created
Converting model to MPEC...
...converted
NOTE: initial MIP solve with only storage competitive to get feasible solution
Solving...

Welcome to IBM(R) ILOG(R) CPLEX(R) Interactive Optimizer 12.9.0.0
  with Simplex, Mixed Integer & Barrier Optimizers
5725-A06 5725-A29 5724-Y48 5724-Y49 5724-Y54 5724-Y55 5655-Y21
Copyright IBM Corp. 1988, 2019.  All Rights Reserved.

Type 'help' for a list of available commands.
Type 'help' followed by a command name for more
information on commands.

CPLEX> Logfile 'cplex.log' closed.
Logfile 'C:\Users\Luke\Desktop\test919\logs\tmpqsgipr_i.cplex.log' open.
CPLEX> New value for parallel optimization mode: -1
CPLEX> New value for mixed integer optimality gap tolerance: 0.01
CPLEX> New value for integrality tolerance: 1e-09
CPLEX> New value for feasibility tolerance: 0.01
CPLEX> New value for deterministic time limit in ticks: 75000
CPLEX> Problem 'C:\Users\Luke\Desktop\test919\logs\tmpvwhau91i.pyomo.lp' read.
Read time = 0.19 sec. (14.73 ticks)
CPLEX> Problem name         : C:\Users\Luke\Desktop\test919\logs\tmpvwhau91i.pyomo.lp
Objective sense      : Maximize
Variables            :   53805  [Nneg: 1,  Box: 22000,  Free: 4464,
                                 Binary: 27340]
Objective nonzeros   :    9070
Linear constraints   :  123205  [Less: 41346,  Greater: 59096,  Equal: 22763]
  Nonzeros           :  291794
  RHS nonzeros       :   67532

Variables            : Min LB: -5000.000        Max UB: 1000000.       
Objective nonzeros   : Min   : 0.2000000        Max   : 2500.000       
Linear constraints   :
  Nonzeros           : Min   : 0.2000000        Max   : 1000000.       
  RHS nonzeros       : Min   : 0.2000000        Max   : 1000000.       
CPLEX> CPXPARAM_Parallel                                -1
CPXPARAM_Simplex_Tolerances_Feasibility          0.01
CPXPARAM_DetTimeLimit                            75000
CPXPARAM_MIP_Tolerances_MIPGap                   0.01
CPXPARAM_MIP_Tolerances_Integrality              1.0000000000000001e-09
Tried aggregator 3 times.
MIP Presolve eliminated 88393 rows and 18748 columns.
MIP Presolve added 3422 rows and 0 columns.
MIP Presolve modified 24947 coefficients.
Aggregator did 12990 substitutions.
Reduced MIP has 25244 rows, 21542 columns, and 71925 nonzeros.
Reduced MIP has 8518 binaries, 0 generals, 0 SOSs, and 0 indicators.
Presolve time = 0.22 sec. (173.73 ticks)
Probing fixed 378 vars, tightened 2892 bounds.
Probing time = 1.44 sec. (902.64 ticks)
Tried aggregator 2 times.
MIP Presolve eliminated 853 rows and 758 columns.
MIP Presolve modified 2254 coefficients.
Aggregator did 41 substitutions.
Reduced MIP has 24350 rows, 20743 columns, and 69328 nonzeros.
Reduced MIP has 8140 binaries, 0 generals, 0 SOSs, and 0 indicators.
Presolve time = 0.09 sec. (72.51 ticks)
Probing time = 0.03 sec. (15.92 ticks)
Clique table members: 6491.
MIP emphasis: balance optimality and feasibility.
MIP search method: dynamic search.
Parallel mode: opportunistic, using up to 24 threads.
Root relaxation solution time = 0.47 sec. (324.32 ticks)

        Nodes                                         Cuts/
   Node  Left     Objective  IInf  Best Integer    Best Bound    ItCnt     Gap

      0     0     3940.9761  1633                   3940.9761     7115         
      0     0     3940.9761     3                    Cuts: 13     7116         
      0     0     3940.9761     3                 Flowcuts: 1     7117         
      0    13    infeasible                         3924.1509     7276         
Elapsed time = 7.38 sec. (4979.56 ticks, tree = 0.02 MB, solutions = 0)
*   148    39      integral     0     3841.7949     3843.1555     7802    0.04%

Clique cuts applied:  4
Implied bound cuts applied:  7
Flow cuts applied:  1
Mixed integer rounding cuts applied:  1

Root node processing (before b&c):
  Real time             =    7.06 sec. (4970.67 ticks)
Parallel b&c, 24 threads:
  Real time             =    0.89 sec. (243.68 ticks)
  Sync time (average)   =    0.15 sec.
  Wait time (average)   =    0.00 sec.
                          ------------
Total (root+branch&cut) =    7.95 sec. (5214.35 ticks)

Solution pool: 1 solution saved.

MIP - Integer optimal, tolerance (0.01/1e-06):  Objective =  3.8417949310e+03
Current MIP best bound =  3.8431554580e+03 (gap = 1.36053, 0.04%)
Solution time =    7.95 sec.  Iterations = 10149  Nodes = 209 (13)
Deterministic time = 5214.50 ticks  (655.66 ticks/sec)

CPLEX> Incumbent solution written to file 'C:\Users\Luke\Desktop\test919\logs\tmpjplm7qnp.cplex.sol'.
CPLEX> NOTE: no warmstart specified for MIP iteration, default behavior is true
NOTE: resolving with all competitive generators using storage-only solution to warmstart
Solving...

Welcome to IBM(R) ILOG(R) CPLEX(R) Interactive Optimizer 12.9.0.0
  with Simplex, Mixed Integer & Barrier Optimizers
5725-A06 5725-A29 5724-Y48 5724-Y49 5724-Y54 5724-Y55 5655-Y21
Copyright IBM Corp. 1988, 2019.  All Rights Reserved.

Type 'help' for a list of available commands.
Type 'help' followed by a command name for more
information on commands.

CPLEX> Logfile 'cplex.log' closed.
Logfile 'C:\Users\Luke\Desktop\test919\logs\tmptc701y93.cplex.log' open.
CPLEX> New value for parallel optimization mode: -1
CPLEX> New value for mixed integer optimality gap tolerance: 0.01
CPLEX> New value for integrality tolerance: 1e-09
CPLEX> New value for feasibility tolerance: 0.01
CPLEX> New value for deterministic time limit in ticks: 75000
CPLEX> Problem 'C:\Users\Luke\Desktop\test919\logs\tmpq0dwv6ew.pyomo.lp' read.
Read time = 0.19 sec. (14.75 ticks)
CPLEX> MIP start file 'C:\Users\Luke\Desktop\test919\logs\tmptl71g6hk.cplex.mst' read.
CPLEX> Problem name         : C:\Users\Luke\Desktop\test919\logs\tmpq0dwv6ew.pyomo.lp
Objective sense      : Maximize
Variables            :   54525  [Nneg: 1,  Box: 22720,  Free: 4464,
                                 Binary: 27340]
Objective nonzeros   :    9790
Linear constraints   :  123205  [Less: 41346,  Greater: 59096,  Equal: 22763]
  Nonzeros           :  291794
  RHS nonzeros       :   67532

Variables            : Min LB: -5000.000        Max UB: 1000000.       
Objective nonzeros   : Min   : 0.2000000        Max   : 2500.000       
Linear constraints   :
  Nonzeros           : Min   : 0.2000000        Max   : 1000000.       
  RHS nonzeros       : Min   : 0.2000000        Max   : 1000000.       
CPLEX> CPXPARAM_Parallel                                -1
CPXPARAM_Simplex_Tolerances_Feasibility          0.01
CPXPARAM_DetTimeLimit                            75000
CPXPARAM_MIP_Tolerances_MIPGap                   0.01
CPXPARAM_MIP_Tolerances_Integrality              1.0000000000000001e-09
Warning:  No solution found from 1 MIP starts.
Retaining values of one MIP start for possible repair.
Tried aggregator 3 times.
MIP Presolve eliminated 88393 rows and 19468 columns.
MIP Presolve added 3422 rows and 0 columns.
MIP Presolve modified 24947 coefficients.
Aggregator did 12990 substitutions.
Reduced MIP has 25244 rows, 21542 columns, and 71925 nonzeros.
Reduced MIP has 8518 binaries, 0 generals, 0 SOSs, and 0 indicators.
Presolve time = 0.23 sec. (174.09 ticks)
Probing fixed 378 vars, tightened 2892 bounds.
Probing time = 1.53 sec. (902.64 ticks)
Tried aggregator 2 times.
MIP Presolve eliminated 853 rows and 758 columns.
MIP Presolve modified 2254 coefficients.
Aggregator did 41 substitutions.
Reduced MIP has 24350 rows, 20743 columns, and 69328 nonzeros.
Reduced MIP has 8140 binaries, 0 generals, 0 SOSs, and 0 indicators.
Presolve time = 0.11 sec. (72.51 ticks)
Probing time = 0.05 sec. (15.92 ticks)
Clique table members: 6491.
MIP emphasis: balance optimality and feasibility.
MIP search method: dynamic search.
Parallel mode: opportunistic, using up to 24 threads.
Root relaxation solution time = 0.47 sec. (324.32 ticks)

        Nodes                                         Cuts/
   Node  Left     Objective  IInf  Best Integer    Best Bound    ItCnt     Gap

      0     0     3940.9761  1633                   3940.9761     7115         
      0     0     3940.9761     3                    Cuts: 13     7116         
      0     0     3940.9761     3                 Flowcuts: 1     7117         
Repair heuristic found nothing.
      0    13    infeasible                         3924.1509     7273         
Elapsed time = 7.72 sec. (5005.97 ticks, tree = 0.02 MB, solutions = 0)
*   126    54      integral     0     3841.7949     3843.1555     8051    0.04%

Clique cuts applied:  4
Implied bound cuts applied:  6
Flow cuts applied:  1
Mixed integer rounding cuts applied:  1

Root node processing (before b&c):
  Real time             =    7.34 sec. (4998.30 ticks)
Parallel b&c, 24 threads:
  Real time             =    0.95 sec. (314.21 ticks)
  Sync time (average)   =    0.16 sec.
  Wait time (average)   =    0.00 sec.
                          ------------
Total (root+branch&cut) =    8.30 sec. (5312.50 ticks)

Solution pool: 1 solution saved.

MIP - Integer optimal, tolerance (0.01/1e-06):  Objective =  3.8417949310e+03
Current MIP best bound =  3.8431554580e+03 (gap = 1.36053, 0.04%)
Solution time =    8.30 sec.  Iterations = 9877  Nodes = 201 (12)
Deterministic time = 5312.66 ticks  (640.31 ticks/sec)

CPLEX> Incumbent solution written to file 'C:\Users\Luke\Desktop\test919\logs\tmpzuf408bs.cplex.sol'.
CPLEX> Exporting results... 
